bacp/02/params/inst-705-1-1963741053.param
language Essence 1.3
$ generated by bacp-gen.pl with seed 1963741053
$ edge probability 0.1044
$ course loads in range 2..6
letting n_courses be 120
letting n_periods be 24
letting load_per_period_lb be 3
letting load_per_period_ub be 37
letting courses_per_period_lb be 5
letting courses_per_period_ub be 8
letting course_load be function(
1 --> 5,
2 --> 6,
3 --> 2,
4 --> 2,
5 --> 4,
6 --> 3,
7 --> 3,
8 --> 3,
9 --> 5,
10 --> 4,
11 --> 2,
12 --> 5,
13 --> 5,
14 --> 4,
15 --> 4,
16 --> 2,
17 --> 2,
18 --> 5,
19 --> 5,
20 --> 4,
21 --> 3,
22 --> 4,
23 --> 4,
24 --> 2,
25 --> 4,
26 --> 5,
27 --> 4,
28 --> 4,
29 --> 4,
30 --> 4,
31 --> 6,
32 --> 3,
33 --> 4,
34 --> 3,
35 --> 4,
36 --> 2,
37 --> 2,
38 --> 5,
39 --> 3,
40 --> 6,
41 --> 4,
42 --> 6,
43 --> 6,
44 --> 5,
45 --> 3,
46 --> 5,
47 --> 5,
48 --> 2,
49 --> 2,
50 --> 3,
51 --> 2,
52 --> 2,
53 --> 3,
54 --> 5,
55 --> 6,
56 --> 5,
57 --> 4,
58 --> 5,
59 --> 3,
60 --> 5,
61 --> 4,
62 --> 6,
63 --> 3,
64 --> 4,
65 --> 4,
66 --> 6,
67 --> 4,
68 --> 6,
69 --> 4,
70 --> 3,
71 --> 4,
72 --> 3,
73 --> 6,
74 --> 4,
75 --> 2,
76 --> 2,
77 --> 2,
78 --> 5,
79 --> 4,
80 --> 6,
81 --> 4,
82 --> 2,
83 --> 4,
84 --> 5,
85 --> 2,
86 --> 2,
87 --> 6,
88 --> 5,
89 --> 3,
90 --> 5,
91 --> 4,
92 --> 4,
93 --> 2,
94 --> 5,
95 --> 5,
96 --> 2,
97 --> 6,
98 --> 5,
99 --> 4,
100 --> 5,
101 --> 6,
102 --> 4,
103 --> 4,
104 --> 2,
105 --> 2,
106 --> 2,
107 --> 3,
108 --> 3,
109 --> 5,
110 --> 5,
111 --> 4,
112 --> 6,
113 --> 6,
114 --> 4,
115 --> 3,
116 --> 3,
117 --> 5,
118 --> 2,
119 --> 3,
120 --> 4
)
letting prerequisite be relation (
(30,38),
(33,39),
(18,40),
(20,41),
(23,42),
(30,43),
(6,44),
(21,45),
(36,46),
(33,47),
(21,48),
(21,49),
(33,50),
(30,51),
(32,52),
(17,53),
(24,54),
(20,55),
(9,56),
(16,57),
(22,58),
(31,59),
(7,60),
(21,61),
(30,62),
(27,63),
(14,64),
(3,65),
(11,66),
(20,67),
(20,68),
(26,69),
(20,70),
(21,71),
(5,72),
(3,73),
(18,74),
(5,75),
(2,76),
(1,77),
(66,78),
(55,79),
(49,80),
(41,81),
(60,82),
(50,83),
(49,84),
(46,85),
(60,86),
(43,87),
(64,88),
(39,89),
(40,90),
(75,91),
(63,92),
(45,93),
(54,94),
(49,95),
(45,96),
(40,97),
(43,98),
(64,99),
(59,100),
(74,101),
(71,102),
(65,103),
(38,104),
(39,105),
(58,106),
(47,107),
(47,108),
(68,109),
(51,110),
(74,111),
(72,112),
(61,113),
(47,114),
(77,115),
(67,116),
(45,117),
(44,118),
(57,119),
(38,120),
(70,104),
(43,91),
(58,94),
(9,60),
(54,99),
(69,79),
(15,51),
(68,105),
(67,103),
(66,84),
(35,42),
(66,106),
(67,84),
(15,77),
(65,91),
(65,117),
(75,79),
(74,83),
(44,102),
(25,39),
(60,91),
(69,118),
(36,69),
(69,92),
(68,83),
(23,63),
(61,89),
(53,90),
(65,96),
(32,45),
(44,110),
(45,107),
(29,77),
(24,65),
(15,54),
(8,71),
(38,102),
(46,110),
(55,103),
(6,70),
(46,94),
(16,77),
(1,44),
(47,78),
(36,64),
(38,81),
(18,71),
(63,107),
(44,112),
(34,50),
(55,110),
(75,100),
(6,43),
(17,64),
(56,98),
(29,69),
(34,74),
(76,95),
(55,96),
(6,51),
(44,100),
(34,61),
(32,69),
(5,69),
(58,109),
(35,59),
(6,57),
(37,46),
(4,51),
(52,85),
(3,60),
(51,120),
(25,38),
(49,96),
(38,84),
(57,96),
(13,48),
(62,91),
(35,66),
(51,116),
(17,44),
(34,51),
(32,77),
(16,76),
(62,85),
(57,93),
(75,115),
(35,72),
(55,83),
(29,38),
(30,60),
(31,38),
(74,82),
(3,66),
(63,118),
(35,77),
(47,82),
(15,72),
(20,53),
(66,98),
(32,67),
(20,40),
(51,115),
(35,52),
(55,117),
(60,93),
(56,79),
(69,113),
(55,85),
(55,107),
(10,70),
(21,64),
(60,108),
(64,102),
(28,40),
(48,91),
(7,43),
(25,56),
(63,97),
(4,45),
(4,44),
(20,75),
(11,63),
(14,75),
(37,62),
(21,43),
(42,86),
(62,120),
(64,95),
(67,80),
(35,55),
(69,115),
(63,81),
(51,84),
(38,114),
(7,74),
(50,109),
(11,77),
(36,76),
(15,68),
(49,106),
(65,111),
(46,95),
(20,77),
(21,44),
(33,64),
(37,65),
(47,89),
(62,92),
(5,77),
(2,44),
(62,102),
(65,88),
(7,47),
(11,60),
(72,98),
(27,75),
(31,41),
(61,81),
(10,42),
(28,64),
(8,77),
(51,99),
(21,52),
(31,64),
(52,106),
(18,39),
(49,86),
(46,90),
(57,95),
(46,109),
(77,107),
(53,85),
(46,100),
(58,98),
(4,74),
(68,116),
(60,117),
(20,60),
(39,102),
(54,118),
(30,74),
(19,43),
(12,67),
(20,47),
(43,106),
(22,52),
(26,65),
(72,120),
(66,81),
(58,99),
(42,91),
(35,51),
(36,63),
(66,91),
(11,67),
(24,61),
(71,114),
(48,94),
(58,104),
(30,52),
(20,59),
(1,43),
(39,115),
(18,53),
(52,80),
(67,88),
(26,40),
(49,114),
(42,99),
(48,89),
(69,102),
(64,115),
(77,96),
(12,77),
(46,102),
(17,58),
(62,111),
(32,62),
(32,54),
(65,97),
(19,65),
(52,116),
(54,109),
(2,53),
(48,99),
(44,98),
(47,117),
(4,58),
(68,85),
(57,100),
(36,51),
(71,100),
(15,62),
(25,45),
(55,86),
(64,119),
(14,48),
(20,56),
(54,90),
(36,59),
(30,66),
(36,55),
(71,78),
(3,76),
(31,60),
(53,100),
(53,96),
(8,66),
(1,76),
(49,103)
)

