bacp/param_dec/inst-705-1-1963741053.eprime-param
language ESSENCE' 1.0

letting n_courses be 120
letting n_periods be 24
letting prerequisite_RelationAsSet_Explicit_1 be
        [1, 1, 1, 1, 2, 2, 2, 3, 3, 3, 3, 3, 4, 4, 4, 4, 4, 5, 5, 5, 5, 6, 6, 6, 6, 6, 7, 7, 7, 7, 8, 8, 8, 9, 9, 10,
         10, 11, 11, 11, 11, 11, 12, 12, 13, 14, 14, 14, 15, 15, 15, 15, 15, 15, 16, 16, 16, 17, 17, 17, 17, 18, 18, 18,
         18, 18, 19, 19, 20, 20, 20, 20, 20, 20, 20, 20, 20, 20, 20, 20, 20, 21, 21, 21, 21, 21, 21, 21, 21, 21, 22, 22,
         23, 23, 24, 24, 24, 25, 25, 25, 25, 26, 26, 26, 27, 27, 28, 28, 29, 29, 29, 30, 30, 30, 30, 30, 30, 30, 30, 31,
         31, 31, 31, 31, 32, 32, 32, 32, 32, 32, 32, 33, 33, 33, 33, 34, 34, 34, 34, 35, 35, 35, 35, 35, 35, 35, 35, 36,
         36, 36, 36, 36, 36, 36, 36, 37, 37, 37, 38, 38, 38, 38, 38, 38, 39, 39, 39, 39, 40, 40, 41, 42, 42, 42, 43, 43,
         43, 43, 44, 44, 44, 44, 44, 44, 45, 45, 45, 45, 46, 46, 46, 46, 46, 46, 46, 46, 47, 47, 47, 47, 47, 47, 47, 48,
         48, 48, 48, 49, 49, 49, 49, 49, 49, 49, 49, 50, 50, 51, 51, 51, 51, 51, 51, 52, 52, 52, 52, 53, 53, 53, 53, 54,
         54, 54, 54, 54, 55, 55, 55, 55, 55, 55, 55, 55, 55, 56, 56, 57, 57, 57, 57, 57, 58, 58, 58, 58, 58, 58, 59, 60,
         60, 60, 60, 60, 60, 61, 61, 61, 62, 62, 62, 62, 62, 62, 63, 63, 63, 63, 63, 64, 64, 64, 64, 64, 64, 65, 65, 65,
         65, 65, 65, 65, 66, 66, 66, 66, 66, 66, 67, 67, 67, 67, 67, 68, 68, 68, 68, 68, 69, 69, 69, 69, 69, 69, 70, 71,
         71, 71, 71, 72, 72, 72, 74, 74, 74, 74, 75, 75, 75, 75, 76, 77, 77, 77;
             int(1..334)]
letting prerequisite_RelationAsSet_Explicit_2 be
        [43, 44, 76, 77, 44, 53, 76, 60, 65, 66, 73, 76, 44, 45, 51, 58, 74, 69, 72, 75, 77, 43, 44, 51, 57, 70, 43, 47,
         60, 74, 66, 71, 77, 56, 60, 42, 70, 60, 63, 66, 67, 77, 67, 77, 48, 48, 64, 75, 51, 54, 62, 68, 72, 77, 57, 76,
         77, 44, 53, 58, 64, 39, 40, 53, 71, 74, 43, 65, 40, 41, 47, 53, 55, 56, 59, 60, 67, 68, 70, 75, 77, 43, 44, 45,
         48, 49, 52, 61, 64, 71, 52, 58, 42, 63, 54, 61, 65, 38, 39, 45, 56, 40, 65, 69, 63, 75, 40, 64, 38, 69, 77, 38,
         43, 51, 52, 60, 62, 66, 74, 38, 41, 59, 60, 64, 45, 52, 54, 62, 67, 69, 77, 39, 47, 50, 64, 50, 51, 61, 74, 42,
         51, 52, 55, 59, 66, 72, 77, 46, 51, 55, 59, 63, 64, 69, 76, 46, 62, 65, 81, 84, 102, 104, 114, 120, 89, 102,
         105, 115, 90, 97, 81, 86, 91, 99, 87, 91, 98, 106, 98, 100, 102, 110, 112, 118, 93, 96, 107, 117, 85, 90, 94,
         95, 100, 102, 109, 110, 78, 82, 89, 107, 108, 114, 117, 89, 91, 94, 99, 80, 84, 86, 95, 96, 103, 106, 114, 83,
         109, 84, 99, 110, 115, 116, 120, 80, 85, 106, 116, 85, 90, 96, 100, 90, 94, 99, 109, 118, 79, 83, 85, 86, 96,
         103, 107, 110, 117, 79, 98, 93, 95, 96, 100, 119, 94, 98, 99, 104, 106, 109, 100, 82, 86, 91, 93, 108, 117, 81,
         89, 113, 85, 91, 92, 102, 111, 120, 81, 92, 97, 107, 118, 88, 95, 99, 102, 115, 119, 88, 91, 96, 97, 103, 111,
         117, 78, 81, 84, 91, 98, 106, 80, 84, 88, 103, 116, 83, 85, 105, 109, 116, 79, 92, 102, 113, 115, 118, 104, 78,
         100, 102, 114, 98, 112, 120, 82, 83, 101, 111, 79, 91, 100, 115, 95, 96, 107, 115;
             int(1..334)]
letting course_load_Function1D be
        [5, 6, 2, 2, 4, 3, 3, 3, 5, 4, 2, 5, 5, 4, 4, 2, 2, 5, 5, 4, 3, 4, 4, 2, 4, 5, 4, 4, 4, 4, 6, 3, 4, 3, 4, 2, 2,
         5, 3, 6, 4, 6, 6, 5, 3, 5, 5, 2, 2, 3, 2, 2, 3, 5, 6, 5, 4, 5, 3, 5, 4, 6, 3, 4, 4, 6, 4, 6, 4, 3, 4, 3, 6, 4,
         2, 2, 2, 5, 4, 6, 4, 2, 4, 5, 2, 2, 6, 5, 3, 5, 4, 4, 2, 5, 5, 2, 6, 5, 4, 5, 6, 4, 4, 2, 2, 2, 3, 3, 5, 5, 4,
         6, 6, 4, 3, 3, 5, 2, 3, 4;
             int(1..120)]
letting load_per_period_ub be 37
letting load_per_period_lb be 3
letting courses_per_period_ub be 8
letting courses_per_period_lb be 5
letting fin1 be 334
letting fin2 be 120
letting fin3 be 6
